%mantenimiento temprano
n_jobs = 4;
n_machines = 3;
n_ops_for = [3, 2, 2, 1];
dur = array2d(1..4, 1..3, [
  3, 4, 5,
  2, 6, 0,
  4, 5, 0,
  7, 0, 0
]);
machine_for = array2d(1..4, 1..3, [
  1, 2, 3,
  2, 3, 0,
  3, 1, 0,
  1, 0, 0
]);
maint_start = [4, 5, 6];
maint_end   = [7, 8, 9];

